20191231 99800.00 99800.00
20180621 99800.00 99200.00
20180109 99803.40 98684.01
20170926 99771.61 98652.23
20170703 99665.16 98545.78
20170628 49844.48 9798.00
20170619 49844.48 9798.00
20170109 49844.48 9798.00
20160621 49845.32 9798.00
20150701 48900.00 9798.00
